row=6;
column=6;
left=[0, 3, 3, 0, 0, 0];
right=[0, 0, 0, 0, 0, 0];
top=[2, 3, 3, 0, 0, 0];
bottom=[3, 0, 0, 0, 0, 0];
Board=[|0,4,0,2,0,6|2,0,0,0,4,3|1,5,0,3,0,2|0,0,0,0,5,0|4,0,6,0,0,0|0,0,2,4,0,0|]